
Log started (V11.0.0) Sun Apr 13 13:47:23 2008

Tried aggregator 1 time.
Reduced MIP has 220 rows, 4001 columns, and 8020 nonzeros.
Presolve time =    0.03 sec.
Clique table members: 200.
MIP emphasis: balance optimality and feasibility.
MIP search method: dynamic search.
Parallel mode: none, using 1 thread.
Root relaxation solution time =    0.08 sec.

        Nodes                                         Cuts/
   Node  Left     Objective  IInf  Best Integer     Best Node    ItCnt     Gap

*     0+    0                        10277.0000       57.7847      504   99.44%
*     0+    0                           65.0000       57.7847      504   11.10%
      0     0       58.0000    36       65.0000      Fract: 8      557   10.77%
      0     0       58.0000    38       65.0000     Covers: 1      567   10.77%
      0     0       58.0000    42       65.0000     Covers: 2      589   10.77%
*     0+    0                           64.0000       58.0000      589    9.37%

Repeating presolve.
Tried aggregator 1 time.
MIP Presolve eliminated 0 rows and 1496 columns.
Reduced MIP has 220 rows, 2505 columns, and 5028 nonzeros.
Tried aggregator 1 time.
Represolve time =    0.11 sec.
Clique table members: 433.
MIP emphasis: balance optimality and feasibility.
MIP search method: dynamic search.
Parallel mode: none, using 1 thread.
Root relaxation solution time =    0.05 sec.

        Nodes                                         Cuts/
   Node  Left     Objective  IInf  Best Integer     Best Node    ItCnt     Gap

      0     0       58.0000    39       64.0000       58.0000      408    9.37%
      0     2       58.0000    39       64.0000       58.0000      408    9.37%
*    50+   44                           63.0000       58.0000     1779    7.94%
    100    82       60.0000    34       63.0000       58.0000     3949    7.94%
*   200+  113                           62.0000       58.0000     7590    6.45%
    200   115       59.0000    35       62.0000       58.0000     7590    6.45%
    300   195       60.0000    35       62.0000       58.0000     9610    6.45%
    400   273       61.0000    29       62.0000       58.0000    11931    6.45%
    500   354       60.0882    42       62.0000       58.0000    14628    6.45%
    600   375       61.0000    37       62.0000       59.0000    18029    4.84%
    700   382       59.0000    38       62.0000       59.0000    21217    4.84%
    800   394       60.0000    46       62.0000       59.0000    24021    4.84%
    900   395       60.9019    52       62.0000       59.0000    28186    4.84%
   1000   408       60.0000    36       62.0000       59.0000    31346    4.84%
Elapsed time =  12.89 sec. (tree size =  1.78 MB, solutions = 5)
*  1064+  295                           61.0000       59.0000    33449    3.28%
*  1074+  145                           60.0000       59.0000    34185    1.67%
   1100   153       59.0000    58       60.0000       59.0000    37473    1.67%
   1200   199       59.0000    59       60.0000       59.0000    49904    1.67%
   1300   255    infeasible             60.0000       59.0000    65044    1.67%
   1400   215       59.0000    96       60.0000       59.0000   110351    1.67%
   1500   215    infeasible             60.0000       59.0000   151121    1.67%
   1600   192       59.0000    88       60.0000       59.0000   207593    1.67%
   1700   264    infeasible             60.0000       59.0000   221399    1.67%
   1800   290       59.0000    89       60.0000       59.0000   255650    1.67%
   1900   366       59.0000   106       60.0000       59.0000   271406    1.67%
   2000   434    infeasible             60.0000       59.0000   284378    1.67%
Elapsed time =  72.20 sec. (tree size =  4.06 MB, solutions = 7)
   2100   466       59.0000   101       60.0000       59.0000   313121    1.67%
   2200   536       59.0000   118       60.0000       59.0000   331030    1.67%
   2300   552       59.0000   108       60.0000       59.0000   371664    1.67%
*  2354+    0                           59.0000       59.0000   378914    0.00%

Cover cuts applied:  746
Mixed integer rounding cuts applied:  9
Gomory fractional cuts applied:  5

Solution pool: 8 solutions saved.

MIP - Integer optimal solution:  Objective = 5.9000000000e+001
Solution time =  102.94 sec.  Iterations = 378914  Nodes = 2354


Incumbent solution
Variable Name           Solution Value
Cmax                         59.000000
X_1_19                        1.000000
X_2_4                         1.000000
X_3_9                         1.000000
X_4_6                         1.000000
X_5_16                        1.000000
X_6_18                        1.000000
X_7_14                        1.000000
X_8_8                         1.000000
X_9_6                         1.000000
X_10_9                        1.000000
X_11_10                       1.000000
X_12_10                       1.000000
X_13_9                        1.000000
X_14_4                        1.000000
X_15_20                       1.000000
X_16_8                        1.000000
X_17_9                        1.000000
X_18_19                       1.000000
X_19_8                        1.000000
X_20_18                       1.000000
X_21_13                       1.000000
X_22_10                       1.000000
X_23_9                        1.000000
X_24_3                        1.000000
X_25_14                       1.000000
X_26_6                        1.000000
X_27_17                       1.000000
X_28_14                       1.000000
X_29_7                        1.000000
X_30_17                       1.000000
X_31_3                        1.000000
X_32_8                        1.000000
X_33_19                       1.000000
X_34_2                        1.000000
X_35_5                        1.000000
X_36_13                       1.000000
X_37_3                        1.000000
X_38_14                       1.000000
X_39_8                        1.000000
X_40_12                       1.000000
X_41_14                       1.000000
X_42_1                        1.000000
X_43_12                       1.000000
X_44_12                       1.000000
X_45_14                       1.000000
X_46_4                        1.000000
X_47_18                       1.000000
X_48_11                       1.000000
X_49_11                       1.000000
X_50_2                        1.000000
X_51_17                       1.000000
X_52_10                       1.000000
X_53_18                       1.000000
X_54_20                       1.000000
X_55_13                       1.000000
X_56_19                       1.000000
X_57_7                        1.000000
X_58_16                       1.000000
X_59_19                       1.000000
X_60_15                       1.000000
X_61_2                        1.000000
X_62_9                        1.000000
X_63_2                        1.000000
X_64_3                        1.000000
X_65_2                        1.000000
X_66_11                       1.000000
X_67_20                       1.000000
X_68_5                        1.000000
X_69_12                       1.000000
X_70_16                       1.000000
X_71_5                        1.000000
X_72_9                        1.000000
X_73_10                       1.000000
X_74_1                        1.000000
X_75_18                       1.000000
X_76_13                       1.000000
X_77_10                       1.000000
X_78_20                       1.000000
X_79_15                       1.000000
X_80_10                       1.000000
X_81_8                        1.000000
X_82_7                        1.000000
X_83_13                       1.000000
X_84_8                        1.000000
X_85_14                       1.000000
X_86_13                       1.000000
X_87_12                       1.000000
X_88_17                       1.000000
X_89_20                       1.000000
X_90_3                        1.000000
X_91_2                        1.000000
X_92_2                        1.000000
X_93_3                        1.000000
X_94_1                        1.000000
X_95_1                        1.000000
X_96_16                       1.000000
X_97_3                        1.000000
X_98_19                       1.000000
X_99_19                       1.000000
X_100_1                       1.000000
X_101_1                       1.000000
X_102_19                      1.000000
X_103_5                       1.000000
X_104_10                      1.000000
X_105_14                      1.000000
X_106_2                       1.000000
X_107_12                      1.000000
X_108_20                      1.000000
X_109_10                      1.000000
X_110_17                      1.000000
X_111_20                      1.000000
X_112_6                       1.000000
X_113_13                      1.000000
X_114_18                      1.000000
X_115_17                      1.000000
X_116_9                       1.000000
X_117_5                       1.000000
X_118_14                      1.000000
X_119_4                       1.000000
X_120_11                      1.000000
X_121_8                       1.000000
X_122_1                       1.000000
X_123_5                       1.000000
X_124_11                      1.000000
X_125_12                      1.000000
X_126_2                       1.000000
X_127_14                      1.000000
X_128_19                      1.000000
X_129_3                       1.000000
X_130_15                      1.000000
X_131_18                      1.000000
X_132_4                       1.000000
X_133_1                       1.000000
X_134_4                       1.000000
X_135_13                      1.000000
X_136_20                      1.000000
X_137_11                      1.000000
X_138_15                      1.000000
X_139_1                       1.000000
X_140_17                      1.000000
X_141_11                      1.000000
X_142_16                      1.000000
X_143_15                      1.000000
X_144_11                      1.000000
X_145_3                       1.000000
X_146_11                      1.000000
X_147_3                       1.000000
X_148_15                      1.000000
X_149_4                       1.000000
X_150_7                       1.000000
X_151_6                       1.000000
X_152_19                      1.000000
X_153_10                      1.000000
X_154_16                      1.000000
X_155_14                      1.000000
X_156_15                      1.000000
X_157_16                      1.000000
X_158_6                       1.000000
X_159_18                      1.000000
X_160_19                      1.000000
X_161_9                       1.000000
X_162_4                       1.000000
X_163_11                      1.000000
X_164_16                      1.000000
X_165_12                      1.000000
X_166_9                       1.000000
X_167_6                       1.000000
X_168_11                      1.000000
X_169_12                      1.000000
X_170_12                      1.000000
X_171_2                       1.000000
X_172_14                      1.000000
X_173_16                      1.000000
X_174_17                      1.000000
X_175_12                      1.000000
X_176_4                       1.000000
X_177_9                       1.000000
X_178_7                       1.000000
X_179_1                       1.000000
X_180_20                      1.000000
X_181_9                       1.000000
X_182_3                       1.000000
X_183_18                      1.000000
X_184_1                       1.000000
X_185_11                      1.000000
X_186_4                       1.000000
X_187_5                       1.000000
X_188_14                      1.000000
X_189_6                       1.000000
X_190_8                       1.000000
X_191_15                      1.000000
X_192_11                      1.000000
X_193_4                       1.000000
X_194_1                       1.000000
X_195_18                      1.000000
X_196_5                       1.000000
X_197_6                       1.000000
X_198_9                       1.000000
X_199_15                      1.000000
X_200_8                       1.000000
All other variables in the range 1-4001 are 0.
